
(declare-rel fail ())
(declare-rel inv2 (Int Int Int Int Int Int))
(declare-rel inv (Int))
(declare-var A Int)
(declare-var B Int)
(declare-var C Int)
(declare-var D Int)
(declare-var E Int)
(declare-var F Int)
(declare-var G Int)
(declare-var H Int)
(declare-var M Int)
(declare-var N Int)
(rule (=> (= N 1000) (inv N)))
(rule (=> (and (inv N) (= H 0) (= G 0) (= (* 4 N) M) (= (+ B N) C) (= (+ D N) B) (= (+ B B) A) (= (+ D C) A))
    (inv2 H G D C B A)))
(rule (let ((a!1 (= F
              (ite (< H B)
                   (ite (>= H D) (+ G 4) (+ G 1))
                   (ite (>= H C) (- G 1) (- G 4))))))
  (=> (and (inv2 H G D C B A) (= E (+ H 1)) a!1) (inv2 E F D C B A))))
(rule (=> (and (inv2 H G D C B A) (= H A) (not (= G 0))) fail))
(query fail)

